sat
( (V0 7)
  (V1 2)
  (V2 1)
  (V3 4)
  (V4 6)
  (V5 5)
  (V6 3)
  (V7 1)
  (V8 5)
  (V9 3)
  (V10 2)
  (V11 4)
  (V12 7)
  (V13 6)
  (V14 2)
  (V15 1)
  (V16 7)
  (V17 5)
  (V18 3)
  (V19 6)
  (V20 4)
  (V21 5)
  (V22 4)
  (V23 6)
  (V24 3)
  (V25 7)
  (V26 1)
  (V27 2)
  (V28 4)
  (V29 6)
  (V30 5)
  (V31 1)
  (V32 2)
  (V33 3)
  (V34 7)
  (V35 6)
  (V36 3)
  (V37 2)
  (V38 7)
  (V39 1)
  (V40 4)
  (V41 5)
  (V42 3)
  (V43 7)
  (V44 4)
  (V45 6)
  (V46 5)
  (V47 2)
  (V48 1) )